(set-info :Origin "This instance was generated by: BanditFuzz-- an RL fuzzer for SMT solvers" )
(set-info :Author "Joe Scott, Fed Mora, Vijay Ganesh" )
(set-info :Contact "Joe Scott, joseph.scott@uwaterloo.ca")
(set-logic QF_BV)
(declare-const bool_0 Bool)
(declare-const bool_1 Bool)
(declare-const bool_2 Bool)
(declare-const bool_3 Bool)
(declare-const bool_4 Bool)
(declare-const bv_0 (_ BitVec 32))
(declare-const bv_1 (_ BitVec 32))
(declare-const bv_2 (_ BitVec 32))
(declare-const bv_3 (_ BitVec 32))
(declare-const bv_4 (_ BitVec 32))
(assert (bvsge (bvnand (bvnand #xbffc514a  #xbc7f5b12 ) (bvshl #xe3eab031  #x9c3d7145 )) (bvmul (bvshl bv_4 #x9a4665c2 ) (bvashr #xc2143884  bv_1))))
(assert (bvslt (bvor (bvudiv #xdbc180fe  #xd141cd46 ) (bvand bv_1 #x76954229 )) (bvsrem (bvor #xfcd77a48  bv_2) (bvudiv #xcbcb1696  #xe69fc2a1 ))))
(assert (xor (not (bvsgt bv_1 bv_4)) (xor (=> false true) (bvugt bv_4 #x65ea297a ))))
(assert (bvsgt (bvxnor (bvxor #xe57c40fb  bv_1) (bvxor bv_3 bv_3)) (bvurem (bvor #x8f53c34c  #xf83a6a68 ) (bvnand #xebb1f29d  #x3f5d3eb1 ))))
(assert (bvugt (bvnor (bvadd #xe1917f83  bv_0) (bvxnor #x494e245c  #xe8d2b915 )) (bvsdiv (bvnor #x913215ee  bv_3) (bvadd #xd052c8f6  bv_0))))
(check-sat)
(exit)
